Route #1: 17 103 41 85 89 51 63 104 105 101 47 26 5 117 46 66 108 97 7 106 83
Route #2: 53 77 100 81 69 68 60 95 4 22 59 1 24 37 57 35 56 11 27 13 98
Route #3: 12 49 2 43 76 99 113 64 82 109 102 111 34 6 92 90 114 8 78 39 42
Route #4: 33 36 115 110 74 65 86 48 28 19 75 18 44 9 15 58 14 23 79 118 30
Route #5: 16 80 71 96 54 72 87 40 62 112 3 45 70 55 93 25 67 21 91 32 29
Route #6: 20 116 107 61 119 84 94 10 88 52 38 31 73 50
Cost 14739.55917547971